(set-info :source |printed by MathSAT|)
(declare-fun call_ticket3i.g4 () Bool)
(declare-fun call_ticket3i.ite19 () Int)
(declare-fun call_ticket3i.ite12 () Int)
(declare-fun call_ticket3i.ite34 () Int)
(declare-fun call_ticket3i.s () Int)
(declare-fun call_ticket3i.ite11 () Int)
(declare-fun call_ticket3i.ite36 () Int)
(declare-fun call_ticket3i.ite4 () Int)
(declare-fun call_ticket3i.ite29 () Int)
(declare-fun call_ticket3i.g1 () Bool)
(declare-fun p1 () Int)
(declare-fun a1 () Int)
(declare-fun param_init_t () Int)
(declare-fun call_ticket3i.flby2 () Int)
(declare-fun param_init_a1 () Int)
(declare-fun call_ticket3i.ite32 () Int)
(declare-fun param_e8 () Bool)
(declare-fun call_ticket3i.g8 () Bool)
(declare-fun param_e4 () Bool)
(declare-fun call_ticket3i.flby5 () Int)
(declare-fun call_ticket3i.ite9 () Int)
(declare-fun call_ticket3i.ite () Bool)
(declare-fun call_ticket3i.ite37 () Int)
(declare-fun env () Bool)
(declare-fun call_ticket3i.flby3 () Int)
(declare-fun call_excludes9.excludes () Bool)
(declare-fun call_ticket3i.ite28 () Int)
(declare-fun call_Sofar.flby () Bool)
(declare-fun call_ticket3i.ite26 () Int)
(declare-fun param_init_a2 () Int)
(declare-fun call_ticket3i.ite6 () Int)
(declare-fun param_e7 () Bool)
(declare-fun param_e9 () Bool)
(declare-fun call_ticket3i.ite5 () Int)
(declare-fun call_ticket3i.p1 () Int)
(declare-fun call_ticket3i.ite16 () Int)
(declare-fun param_init_a3 () Int)
(declare-fun call_ticket3i.ite18 () Int)
(declare-fun call_ticket3i.g6 () Bool)
(declare-fun call_ticket3i.g9 () Bool)
(declare-fun call_ticket3i.ite33 () Int)
(declare-fun p2 () Int)
(declare-fun call_ticket3i.ite25 () Int)
(declare-fun param_e3 () Bool)
(declare-fun call_ticket3i.flby6 () Int)
(declare-fun call_ticket3i.a1 () Int)
(declare-fun call_ticket3i.ite30 () Int)
(declare-fun call_ticket3i.ite13 () Int)
(declare-fun a2 () Int)
(declare-fun call_ticket3i.ite8 () Int)
(declare-fun call_ticket3i.g2 () Bool)
(declare-fun call_ticket3i.g5 () Bool)
(declare-fun param_e6 () Bool)
(declare-fun call_ticket3i.ite2 () Int)
(declare-fun call_ticket3i.flby () Int)
(declare-fun call_ticket3i.ite22 () Int)
(declare-fun call_ticket3i.ite10 () Int)
(declare-fun a3 () Int)
(declare-fun call_ticket3i.ite21 () Int)
(declare-fun call_ticket3i.ite24 () Int)
(declare-fun call_ticket3i.ite35 () Int)
(declare-fun call_ticket3i.ite23 () Int)
(declare-fun call_ticket3i.erreur_ticket3i () Bool)
(declare-fun call_ticket3i.g7 () Bool)
(declare-fun call_ticket3i.flby4 () Int)
(declare-fun call_ticket3i.t () Int)
(declare-fun s () Int)
(declare-fun param_e1 () Bool)
(declare-fun call_ticket3i.g3 () Bool)
(declare-fun call_ticket3i.p3 () Int)
(declare-fun t () Int)
(declare-fun call_ticket3i.ite17 () Int)
(declare-fun p3 () Int)
(declare-fun call_ticket3i.ite7 () Int)
(declare-fun call_ticket3i.p2 () Int)
(declare-fun call_Sofar.Sofar () Bool)
(declare-fun param_e5 () Bool)
(declare-fun call_ticket3i.flby7 () Int)
(declare-fun call_ticket3i.ite15 () Int)
(declare-fun call_ticket3i.ite14 () Int)
(declare-fun call_ticket3i.ite3 () Int)
(declare-fun call_ticket3i.ite27 () Int)
(declare-fun _OK_ () Bool)
(declare-fun call_ticket3i.a2 () Int)
(declare-fun call_ticket3i.flby8 () Int)
(declare-fun call_ticket3i.ite20 () Int)
(declare-fun erreur_ticket3i () Bool)
(declare-fun call_ticket3i.ite31 () Int)
(declare-fun param_e2 () Bool)
(declare-fun call_ticket3i.a3 () Int)
(define-fun .def_1258 () Bool (= call_Sofar.flby call_Sofar.Sofar))
(define-fun .def_1122 () Bool (not param_e2))
(define-fun .def_923 () Bool (not param_e1))
(define-fun .def_1195 () Bool (and .def_923 .def_1122))
(define-fun .def_930 () Bool (not param_e3))
(define-fun .def_1196 () Bool (and .def_930 .def_1195))
(define-fun .def_937 () Bool (not param_e4))
(define-fun .def_1197 () Bool (and .def_937 .def_1196))
(define-fun .def_1154 () Bool (not param_e5))
(define-fun .def_1198 () Bool (and .def_1154 .def_1197))
(define-fun .def_944 () Bool (not param_e6))
(define-fun .def_1199 () Bool (and .def_944 .def_1198))
(define-fun .def_900 () Bool (not param_e7))
(define-fun .def_1200 () Bool (and .def_900 .def_1199))
(define-fun .def_1068 () Bool (not param_e8))
(define-fun .def_1201 () Bool (and .def_1068 .def_1200))
(define-fun .def_911 () Bool (not param_e9))
(define-fun .def_1246 () Bool (and .def_911 .def_1201))
(define-fun .def_1238 () Bool (and param_e1 .def_1122))
(define-fun .def_1239 () Bool (and .def_930 .def_1238))
(define-fun .def_1240 () Bool (and .def_937 .def_1239))
(define-fun .def_1241 () Bool (and .def_1154 .def_1240))
(define-fun .def_1242 () Bool (and .def_944 .def_1241))
(define-fun .def_1243 () Bool (and .def_900 .def_1242))
(define-fun .def_1244 () Bool (and .def_1068 .def_1243))
(define-fun .def_1245 () Bool (and .def_911 .def_1244))
(define-fun .def_1247 () Bool (or .def_1245 .def_1246))
(define-fun .def_1230 () Bool (and .def_923 param_e2))
(define-fun .def_1231 () Bool (and .def_930 .def_1230))
(define-fun .def_1232 () Bool (and .def_937 .def_1231))
(define-fun .def_1233 () Bool (and .def_1154 .def_1232))
(define-fun .def_1234 () Bool (and .def_944 .def_1233))
(define-fun .def_1235 () Bool (and .def_900 .def_1234))
(define-fun .def_1236 () Bool (and .def_1068 .def_1235))
(define-fun .def_1237 () Bool (and .def_911 .def_1236))
(define-fun .def_1248 () Bool (or .def_1237 .def_1247))
(define-fun .def_1223 () Bool (and param_e3 .def_1195))
(define-fun .def_1224 () Bool (and .def_937 .def_1223))
(define-fun .def_1225 () Bool (and .def_1154 .def_1224))
(define-fun .def_1226 () Bool (and .def_944 .def_1225))
(define-fun .def_1227 () Bool (and .def_900 .def_1226))
(define-fun .def_1228 () Bool (and .def_1068 .def_1227))
(define-fun .def_1229 () Bool (and .def_911 .def_1228))
(define-fun .def_1249 () Bool (or .def_1229 .def_1248))
(define-fun .def_1217 () Bool (and param_e4 .def_1196))
(define-fun .def_1218 () Bool (and .def_1154 .def_1217))
(define-fun .def_1219 () Bool (and .def_944 .def_1218))
(define-fun .def_1220 () Bool (and .def_900 .def_1219))
(define-fun .def_1221 () Bool (and .def_1068 .def_1220))
(define-fun .def_1222 () Bool (and .def_911 .def_1221))
(define-fun .def_1250 () Bool (or .def_1222 .def_1249))
(define-fun .def_1212 () Bool (and param_e5 .def_1197))
(define-fun .def_1213 () Bool (and .def_944 .def_1212))
(define-fun .def_1214 () Bool (and .def_900 .def_1213))
(define-fun .def_1215 () Bool (and .def_1068 .def_1214))
(define-fun .def_1216 () Bool (and .def_911 .def_1215))
(define-fun .def_1251 () Bool (or .def_1216 .def_1250))
(define-fun .def_1208 () Bool (and param_e6 .def_1198))
(define-fun .def_1209 () Bool (and .def_900 .def_1208))
(define-fun .def_1210 () Bool (and .def_1068 .def_1209))
(define-fun .def_1211 () Bool (and .def_911 .def_1210))
(define-fun .def_1252 () Bool (or .def_1211 .def_1251))
(define-fun .def_1205 () Bool (and param_e7 .def_1199))
(define-fun .def_1206 () Bool (and .def_1068 .def_1205))
(define-fun .def_1207 () Bool (and .def_911 .def_1206))
(define-fun .def_1253 () Bool (or .def_1207 .def_1252))
(define-fun .def_1203 () Bool (and param_e8 .def_1200))
(define-fun .def_1204 () Bool (and .def_911 .def_1203))
(define-fun .def_1254 () Bool (or .def_1204 .def_1253))
(define-fun .def_1202 () Bool (and param_e9 .def_1201))
(define-fun .def_1255 () Bool (or .def_1202 .def_1254))
(define-fun .def_1256 () Bool (= call_excludes9.excludes .def_1255))
(define-fun .def_1193 () Bool (= call_ticket3i.erreur_ticket3i call_ticket3i.ite))
(define-fun .def_1191 () Bool (= call_ticket3i.flby8 call_ticket3i.a3))
(define-fun .def_1189 () Bool (= call_ticket3i.flby7 call_ticket3i.a2))
(define-fun .def_1187 () Bool (= call_ticket3i.flby6 call_ticket3i.a1))
(define-fun .def_1185 () Bool (= call_ticket3i.flby5 call_ticket3i.s))
(define-fun .def_1183 () Bool (= call_ticket3i.flby4 call_ticket3i.t))
(define-fun .def_1181 () Bool (= call_ticket3i.flby3 call_ticket3i.p3))
(define-fun .def_1179 () Bool (= call_ticket3i.flby2 call_ticket3i.p2))
(define-fun .def_1176 () Bool (= call_ticket3i.flby call_ticket3i.p1))
(define-fun .def_1170 () Bool (<= 3 call_ticket3i.p3))
(define-fun .def_1168 () Bool (<= 3 call_ticket3i.p2))
(define-fun .def_1167 () Bool (<= 3 call_ticket3i.p1))
(define-fun .def_1169 () Bool (or .def_1167 .def_1168))
(define-fun .def_1171 () Bool (or .def_1169 .def_1170))
(define-fun .def_1173 () Bool (not .def_1171))
(define-fun .def_1174 () Bool (or call_ticket3i.ite .def_1173))
(define-fun .def_1166 () Bool (not call_ticket3i.ite))
(define-fun .def_1172 () Bool (or .def_1166 .def_1171))
(define-fun .def_1175 () Bool (and .def_1172 .def_1174))
(define-fun .def_1177 () Bool (and .def_1175 .def_1176))
(define-fun .def_1161 () Bool (= call_ticket3i.ite30 call_ticket3i.ite27))
(define-fun .def_1162 () Bool (or .def_944 .def_1161))
(define-fun .def_1158 () Bool (= call_ticket3i.ite29 call_ticket3i.ite30))
(define-fun .def_1159 () Bool (or param_e6 .def_1158))
(define-fun .def_1163 () Bool (and .def_1159 .def_1162))
(define-fun .def_1153 () Bool (= call_ticket3i.ite9 call_ticket3i.ite12))
(define-fun .def_1155 () Bool (or .def_1153 .def_1154))
(define-fun .def_1150 () Bool (= call_ticket3i.ite11 call_ticket3i.ite12))
(define-fun .def_1152 () Bool (or .def_1150 param_e5))
(define-fun .def_1156 () Bool (and .def_1152 .def_1155))
(define-fun .def_1146 () Bool (= call_ticket3i.ite23 call_ticket3i.ite24))
(define-fun .def_1147 () Bool (or param_e4 .def_1146))
(define-fun .def_1143 () Bool (= call_ticket3i.ite24 call_ticket3i.ite21))
(define-fun .def_1144 () Bool (or .def_937 .def_1143))
(define-fun .def_1139 () Bool (= call_ticket3i.ite8 call_ticket3i.ite13))
(define-fun .def_1140 () Bool (or .def_937 .def_1139))
(define-fun .def_1137 () Bool (= call_ticket3i.ite13 call_ticket3i.ite12))
(define-fun .def_1138 () Bool (or param_e4 .def_1137))
(define-fun .def_1141 () Bool (and .def_1138 .def_1140))
(define-fun .def_1145 () Bool (and .def_1141 .def_1144))
(define-fun .def_1148 () Bool (and .def_1145 .def_1147))
(define-fun .def_1131 () Bool (= call_ticket3i.ite31 call_ticket3i.ite26))
(define-fun .def_1132 () Bool (or .def_930 .def_1131))
(define-fun .def_1128 () Bool (= call_ticket3i.ite31 call_ticket3i.ite30))
(define-fun .def_1129 () Bool (or param_e3 .def_1128))
(define-fun .def_1133 () Bool (and .def_1129 .def_1132))
(define-fun .def_1121 () Bool (= call_ticket3i.ite3 call_ticket3i.ite6))
(define-fun .def_1123 () Bool (or .def_1121 .def_1122))
(define-fun .def_1118 () Bool (= call_ticket3i.ite5 call_ticket3i.ite6))
(define-fun .def_1120 () Bool (or .def_1118 param_e2))
(define-fun .def_1124 () Bool (and .def_1120 .def_1123))
(define-fun .def_1114 () Bool (= call_ticket3i.ite25 call_ticket3i.ite24))
(define-fun .def_1115 () Bool (or param_e1 .def_1114))
(define-fun .def_1110 () Bool (= call_ticket3i.ite20 call_ticket3i.ite25))
(define-fun .def_1111 () Bool (or .def_923 .def_1110))
(define-fun .def_1105 () Bool (= call_ticket3i.ite2 call_ticket3i.ite7))
(define-fun .def_1106 () Bool (or .def_923 .def_1105))
(define-fun .def_1103 () Bool (= call_ticket3i.ite7 call_ticket3i.ite6))
(define-fun .def_1104 () Bool (or param_e1 .def_1103))
(define-fun .def_1107 () Bool (and .def_1104 .def_1106))
(define-fun .def_1112 () Bool (and .def_1107 .def_1111))
(define-fun .def_1116 () Bool (and .def_1112 .def_1115))
(define-fun .def_1099 () Bool (= env call_Sofar.Sofar))
(define-fun .def_1096 () Bool (= erreur_ticket3i call_ticket3i.erreur_ticket3i))
(define-fun .def_1092 () Bool (= a3 call_ticket3i.a3))
(define-fun .def_1088 () Bool (= a2 call_ticket3i.a2))
(define-fun .def_1084 () Bool (= a1 call_ticket3i.a1))
(define-fun .def_1080 () Bool (= s call_ticket3i.s))
(define-fun .def_1076 () Bool (= call_ticket3i.t t))
(define-fun .def_1073 () Bool (= p3 call_ticket3i.p3))
(define-fun .def_1067 () Bool (= call_ticket3i.ite15 call_ticket3i.ite18))
(define-fun .def_1069 () Bool (or .def_1067 .def_1068))
(define-fun .def_1064 () Bool (= call_ticket3i.ite17 call_ticket3i.ite18))
(define-fun .def_1066 () Bool (or .def_1064 param_e8))
(define-fun .def_1070 () Bool (and .def_1066 .def_1069))
(define-fun .def_1062 () Bool (= p2 call_ticket3i.p2))
(define-fun .def_1058 () Bool (= p1 call_ticket3i.p1))
(define-fun .def_1052 () Bool (= call_ticket3i.ite14 call_ticket3i.ite19))
(define-fun .def_1053 () Bool (or .def_900 .def_1052))
(define-fun .def_1050 () Bool (= call_ticket3i.ite19 call_ticket3i.ite18))
(define-fun .def_1051 () Bool (or param_e7 .def_1050))
(define-fun .def_1054 () Bool (and .def_1051 .def_1053))
(define-fun .def_1044 () Bool (<= p3 3))
(define-fun .def_1043 () Bool (<= 0 p3))
(define-fun .def_1045 () Bool (and .def_1043 .def_1044))
(define-fun .def_1041 () Bool (not env))
(define-fun .def_1046 () Bool (or .def_1041 .def_1045))
(define-fun .def_1047 () Bool (= _OK_ .def_1046))
(define-fun .def_1055 () Bool (and .def_1047 .def_1054))
(define-fun .def_1059 () Bool (and .def_1055 .def_1058))
(define-fun .def_1063 () Bool (and .def_1059 .def_1062))
(define-fun .def_1071 () Bool (and .def_1063 .def_1070))
(define-fun .def_1074 () Bool (and .def_1071 .def_1073))
(define-fun .def_1077 () Bool (and .def_1074 .def_1076))
(define-fun .def_1081 () Bool (and .def_1077 .def_1080))
(define-fun .def_1085 () Bool (and .def_1081 .def_1084))
(define-fun .def_1089 () Bool (and .def_1085 .def_1088))
(define-fun .def_1093 () Bool (and .def_1089 .def_1092))
(define-fun .def_1097 () Bool (and .def_1093 .def_1096))
(define-fun .def_1100 () Bool (and .def_1097 .def_1099))
(define-fun .def_1117 () Bool (and .def_1100 .def_1116))
(define-fun .def_1125 () Bool (and .def_1117 .def_1124))
(define-fun .def_1134 () Bool (and .def_1125 .def_1133))
(define-fun .def_1149 () Bool (and .def_1134 .def_1148))
(define-fun .def_1157 () Bool (and .def_1149 .def_1156))
(define-fun .def_1164 () Bool (and .def_1157 .def_1163))
(define-fun .def_1178 () Bool (and .def_1164 .def_1177))
(define-fun .def_1180 () Bool (and .def_1178 .def_1179))
(define-fun .def_1182 () Bool (and .def_1180 .def_1181))
(define-fun .def_1184 () Bool (and .def_1182 .def_1183))
(define-fun .def_1186 () Bool (and .def_1184 .def_1185))
(define-fun .def_1188 () Bool (and .def_1186 .def_1187))
(define-fun .def_1190 () Bool (and .def_1188 .def_1189))
(define-fun .def_1192 () Bool (and .def_1190 .def_1191))
(define-fun .def_1194 () Bool (and .def_1192 .def_1193))
(define-fun .def_1257 () Bool (and .def_1194 .def_1256))
(define-fun .def_1259 () Bool (and .def_1257 .def_1258))
(define-fun .def_1034 () Bool (<= 0 param_init_t))
(define-fun .def_1032 () Bool (<= 0 param_init_a3))
(define-fun .def_1030 () Bool (<= 0 param_init_a2))
(define-fun .def_1027 () Bool (<= 0 param_init_a1))
(define-fun .def_1029 () Bool (and .def_1027 call_excludes9.excludes))
(define-fun .def_1031 () Bool (and .def_1029 .def_1030))
(define-fun .def_1033 () Bool (and .def_1031 .def_1032))
(define-fun .def_1035 () Bool (and .def_1033 .def_1034))
(define-fun .def_1037 () Bool (= .def_1035 call_Sofar.flby))
(define-fun .def_1025 () Bool (= param_init_a3 call_ticket3i.flby8))
(define-fun .def_1021 () Bool (= param_init_a2 call_ticket3i.flby7))
(define-fun .def_1017 () Bool (= param_init_a1 call_ticket3i.flby6))
(define-fun .def_1013 () Bool (= call_ticket3i.t call_ticket3i.flby5))
(define-fun .def_1009 () Bool (= param_init_t call_ticket3i.flby4))
(define-fun .def_1005 () Bool (= call_ticket3i.flby3 0))
(define-fun .def_1002 () Bool (= call_ticket3i.flby2 0))
(define-fun .def_999 () Bool (= call_ticket3i.flby 0))
(define-fun .def_995 () Bool (= call_ticket3i.ite16 0))
(define-fun .def_994 () Bool (not call_ticket3i.g9))
(define-fun .def_996 () Bool (or .def_994 .def_995))
(define-fun .def_990 () Bool (= call_ticket3i.ite15 2))
(define-fun .def_988 () Bool (not call_ticket3i.g8))
(define-fun .def_991 () Bool (or .def_988 .def_990))
(define-fun .def_984 () Bool (= call_ticket3i.ite14 1))
(define-fun .def_982 () Bool (not call_ticket3i.g7))
(define-fun .def_985 () Bool (or .def_982 .def_984))
(define-fun .def_978 () Bool (= call_ticket3i.ite10 0))
(define-fun .def_977 () Bool (not call_ticket3i.g6))
(define-fun .def_979 () Bool (or .def_977 .def_978))
(define-fun .def_973 () Bool (= call_ticket3i.ite9 2))
(define-fun .def_971 () Bool (not call_ticket3i.g5))
(define-fun .def_974 () Bool (or .def_971 .def_973))
(define-fun .def_967 () Bool (= call_ticket3i.ite8 1))
(define-fun .def_965 () Bool (not call_ticket3i.g4))
(define-fun .def_968 () Bool (or .def_965 .def_967))
(define-fun .def_961 () Bool (= call_ticket3i.ite4 0))
(define-fun .def_960 () Bool (not call_ticket3i.g3))
(define-fun .def_962 () Bool (or .def_960 .def_961))
(define-fun .def_956 () Bool (= call_ticket3i.ite3 2))
(define-fun .def_954 () Bool (not call_ticket3i.g2))
(define-fun .def_957 () Bool (or .def_954 .def_956))
(define-fun .def_950 () Bool (= call_ticket3i.ite2 1))
(define-fun .def_948 () Bool (not call_ticket3i.g1))
(define-fun .def_951 () Bool (or .def_948 .def_950))
(define-fun .def_942 () Bool (= call_ticket3i.ite10 call_ticket3i.ite11))
(define-fun .def_945 () Bool (or .def_942 .def_944))
(define-fun .def_935 () Bool (= call_ticket3i.ite35 call_ticket3i.ite34))
(define-fun .def_938 () Bool (or .def_935 .def_937))
(define-fun .def_928 () Bool (= call_ticket3i.ite4 call_ticket3i.ite5))
(define-fun .def_931 () Bool (or .def_928 .def_930))
(define-fun .def_921 () Bool (= call_ticket3i.ite33 call_ticket3i.ite32))
(define-fun .def_924 () Bool (or .def_921 .def_923))
(define-fun .def_915 () Bool (= call_ticket3i.ite16 call_ticket3i.ite17))
(define-fun .def_916 () Bool (or .def_911 .def_915))
(define-fun .def_909 () Bool (= call_ticket3i.ite28 call_ticket3i.ite29))
(define-fun .def_912 () Bool (or .def_909 .def_911))
(define-fun .def_917 () Bool (and .def_912 .def_916))
(define-fun .def_904 () Bool (= call_ticket3i.ite22 call_ticket3i.ite23))
(define-fun .def_905 () Bool (or .def_900 .def_904))
(define-fun .def_898 () Bool (= call_ticket3i.ite37 call_ticket3i.ite36))
(define-fun .def_901 () Bool (or .def_898 .def_900))
(define-fun .def_906 () Bool (and .def_901 .def_905))
(define-fun .def_918 () Bool (and .def_906 .def_917))
(define-fun .def_925 () Bool (and .def_918 .def_924))
(define-fun .def_932 () Bool (and .def_925 .def_931))
(define-fun .def_939 () Bool (and .def_932 .def_938))
(define-fun .def_946 () Bool (and .def_939 .def_945))
(define-fun .def_952 () Bool (and .def_946 .def_951))
(define-fun .def_958 () Bool (and .def_952 .def_957))
(define-fun .def_963 () Bool (and .def_958 .def_962))
(define-fun .def_969 () Bool (and .def_963 .def_968))
(define-fun .def_975 () Bool (and .def_969 .def_974))
(define-fun .def_980 () Bool (and .def_975 .def_979))
(define-fun .def_986 () Bool (and .def_980 .def_985))
(define-fun .def_992 () Bool (and .def_986 .def_991))
(define-fun .def_997 () Bool (and .def_992 .def_996))
(define-fun .def_1000 () Bool (and .def_997 .def_999))
(define-fun .def_1003 () Bool (and .def_1000 .def_1002))
(define-fun .def_1006 () Bool (and .def_1003 .def_1005))
(define-fun .def_1010 () Bool (and .def_1006 .def_1009))
(define-fun .def_1014 () Bool (and .def_1010 .def_1013))
(define-fun .def_1018 () Bool (and .def_1014 .def_1017))
(define-fun .def_1022 () Bool (and .def_1018 .def_1021))
(define-fun .def_1026 () Bool (and .def_1022 .def_1025))
(define-fun .def_1038 () Bool (and .def_1026 .def_1037))
(define-fun .def_1260 () Bool (and .def_1038 .def_1259))
(assert .def_1260)
